
  32    1
  10

   0   0   6 2 3 4 5 6 9 
   8   1   5 17 16 15 8 7 
   2   4   6 22 17 15 13 12 7 
  10   6   5 22 17 15 13 7 
   5  10   4 22 16 13 7 
   1   8   6 31 22 18 14 11 10 
   5  10   5 31 21 18 14 11 
   7   3   4 26 22 18 12 
   3   5   4 23 20 17 14 
   5   6   4 24 21 19 17 
   1   7   4 29 23 20 19 
   1   4   4 29 23 20 19 
   9   8   4 31 29 24 23 
   2   6   4 30 28 26 25 
   3   6   4 31 29 25 24 
  10   6   2 23 19 
   5   7   4 30 28 27 26 
   9  10   3 29 28 27 
  10   5   2 28 25 
   6   6   2 30 24 
   2   8   2 30 26 
   7   4   2 27 24 
  10   3   2 30 27 
   4   5   1 28 
  10   6   1 27 
   4   4   1 29 
   4   9   1 32
   5   5   1 32
   7  10   1 32
   9   3   1 32
   7   5   1 32
   0   0   0 
